100
100
3000 3000 3000 3000 3000 3000 3000 3000 3000 3000 3000 3000 3000 3000 3000 3000 3000 3000 3000 3000 3000 3000 3000 3000 3000 3000 3000 3000 3000 3000 3000 3000 3000 3000 3000 3000 3000 3000 3000 3000 3000 3000 3000 3000 3000 3000 3000 3000 3000 3000 3000 3000 3000 3000 3000 3000 3000 3000 3000 3000 3000 3000 3000 3000 3000 3000 3000 3000 3000 3000 3000 3000 3000 3000 3000 3000 3000 3000 3000 3000 3000 3000 3000 3000 3000 3000 3000 3000 3000 3000 3000 3000 3000 3000 3000 3000 3000 3000 3000 3000
0 6 0
0 25 4
0 27 2
0 28 3
0 30 3
0 36 0
0 41 4
0 43 3
0 53 2
0 78 0
1 11 2
1 12 0
1 31 0
1 43 0
1 55 1
1 59 2
1 69 4
1 81 0
1 84 4
1 85 1
2 3 4
2 7 2
2 9 1
2 10 4
2 21 2
2 28 0
2 31 4
2 40 1
2 64 0
2 75 0
3 0 4
3 4 0
3 17 1
3 35 1
3 38 2
3 56 1
3 57 3
3 61 4
3 65 2
3 70 3
4 18 3
4 31 2
4 60 4
4 62 0
4 77 2
4 79 0
4 86 1
4 91 0
4 92 1
4 96 2
5 10 1
5 12 4
5 26 2
5 35 3
5 40 3
5 43 0
5 46 4
5 59 3
5 83 0
5 87 3
6 7 0
6 14 2
6 39 0
6 41 3
6 43 1
6 46 3
6 48 3
6 58 0
6 71 1
6 72 2
7 14 0
7 35 3
7 42 3
7 49 1
7 63 4
7 64 2
7 67 2
7 70 0
7 73 2
7 90 3
8 15 0
8 56 3
8 65 1
8 67 1
8 69 3
8 77 2
8 78 3
8 84 1
8 88 3
8 93 3
9 20 1
9 23 3
9 29 1
9 46 0
9 54 0
9 58 2
9 68 4
9 70 1
9 79 0
9 83 0
10 11 1
10 20 0
10 22 0
10 34 0
10 36 1
10 42 2
10 50 1
10 57 4
10 68 4
10 70 1
11 13 2
11 20 1
11 24 4
11 42 4
11 48 1
11 73 3
11 86 1
11 92 2
11 93 3
11 97 1
12 3 3
12 10 0
12 20 0
12 22 2
12 38 0
12 43 2
12 70 4
12 89 2
12 93 2
12 94 4
13 1 1
13 7 0
13 9 1
13 10 0
13 16 3
13 22 1
13 36 1
13 49 0
13 55 0
13 66 0
14 8 3
14 16 0
14 26 4
14 33 3
14 36 1
14 50 2
14 51 4
14 56 1
14 64 2
14 76 1
15 1 3
15 16 1
15 26 3
15 29 4
15 30 1
15 43 4
15 54 1
15 55 2
15 56 2
15 58 0
16 3 4
16 25 2
16 41 3
16 45 0
16 47 0
16 48 1
16 63 1
16 66 2
16 73 0
16 96 0
17 6 4
17 30 4
17 37 3
17 39 1
17 42 1
17 71 0
17 72 3
17 74 4
17 81 4
17 84 0
18 1 3
18 2 4
18 18 4
18 21 2
18 29 4
18 31 2
18 32 4
18 37 3
18 45 0
18 47 2
19 2 3
19 11 4
19 29 1
19 41 4
19 44 2
19 48 1
19 52 3
19 70 0
19 79 2
19 89 0
20 5 4
20 11 3
20 17 4
20 22 1
20 23 2
20 25 2
20 32 1
20 39 2
20 51 1
20 53 4
21 5 3
21 8 0
21 29 3
21 31 0
21 32 4
21 45 2
21 50 1
21 52 2
21 59 3
21 60 0
22 12 2
22 13 1
22 14 0
22 27 2
22 29 2
22 45 3
22 67 1
22 71 3
22 76 4
22 92 1
23 22 0
23 30 1
23 35 4
23 36 0
23 37 2
23 44 1
23 61 0
23 89 4
23 94 3
23 98 2
24 2 1
24 4 1
24 12 2
24 18 3
24 19 0
24 33 1
24 37 0
24 44 4
24 58 4
24 76 0
25 17 4
25 35 3
25 52 1
25 59 4
25 85 2
25 90 3
25 91 3
25 93 3
25 95 3
25 97 4
26 2 3
26 9 4
26 34 0
26 45 4
26 57 0
26 61 4
26 77 1
26 82 2
26 87 1
26 88 3
27 5 3
27 18 2
27 23 2
27 32 2
27 39 0
27 41 4
27 52 4
27 69 2
27 85 3
27 87 3
28 5 3
28 18 4
28 48 0
28 50 0
28 58 1
28 59 1
28 72 2
28 82 2
28 92 1
28 95 4
29 6 4
29 16 2
29 25 0
29 31 3
29 52 3
29 53 1
29 66 2
29 72 1
29 73 3
29 78 1
30 17 0
30 30 3
30 31 2
30 42 1
30 48 0
30 52 1
30 54 1
30 75 4
30 84 2
30 87 3
31 1 3
31 12 0
31 20 2
31 23 3
31 25 1
31 45 1
31 51 1
31 52 2
31 58 3
31 60 2
32 6 4
32 9 2
32 12 2
32 18 3
32 23 3
32 27 3
32 28 3
32 33 3
32 42 4
32 52 1
33 21 1
33 32 2
33 37 0
33 49 4
33 54 0
33 86 3
33 89 0
33 92 0
33 93 4
33 94 0
34 9 4
34 14 4
34 15 2
34 21 4
34 41 0
34 60 4
34 63 1
34 73 0
34 77 0
34 90 0
35 5 3
35 29 2
35 44 4
35 63 1
35 68 4
35 83 0
35 86 3
35 94 2
35 95 4
35 99 4
36 6 0
36 7 0
36 13 4
36 24 1
36 40 3
36 41 3
36 63 4
36 73 1
36 76 2
36 80 4
37 4 4
37 7 2
37 14 4
37 23 3
37 34 0
37 38 1
37 40 1
37 43 4
37 55 0
37 62 4
38 0 3
38 8 1
38 11 3
38 34 4
38 38 2
38 40 0
38 45 2
38 64 4
38 69 4
38 72 4
39 3 2
39 5 0
39 18 2
39 19 1
39 20 0
39 32 1
39 46 3
39 54 3
39 62 2
39 73 0
40 2 0
40 4 0
40 10 2
40 26 3
40 30 0
40 34 1
40 55 2
40 59 1
40 77 3
40 83 2
41 26 4
41 35 3
41 40 0
41 52 2
41 69 1
41 75 1
41 78 0
41 81 1
41 83 0
41 85 2
42 1 2
42 14 4
42 21 0
42 32 2
42 37 1
42 42 2
42 49 4
42 54 0
42 57 2
42 66 1
43 11 3
43 17 1
43 21 3
43 22 0
43 35 4
43 38 0
43 44 2
43 53 1
43 67 4
43 75 0
44 2 3
44 3 3
44 6 3
44 9 3
44 11 4
44 17 4
44 26 4
44 28 3
44 38 4
44 45 0
45 40 2
45 45 1
45 46 0
45 47 2
45 49 2
45 60 1
45 62 2
45 70 3
45 71 3
45 74 2
46 20 0
46 23 0
46 41 3
46 43 3
46 44 4
46 49 0
46 63 4
46 96 0
46 97 2
46 98 1
47 0 0
47 7 2
47 37 0
47 38 1
47 43 1
47 53 0
47 59 2
47 77 3
47 82 0
47 89 4
48 18 3
48 28 0
48 30 1
48 39 2
48 50 2
48 51 0
48 57 3
48 68 4
48 71 4
48 77 2
49 12 0
49 15 4
49 33 3
49 42 2
49 66 2
49 69 0
49 71 2
49 73 4
49 81 1
49 88 4
50 0 4
50 5 2
50 6 3
50 33 1
50 36 3
50 55 4
50 64 3
50 67 3
50 80 2
50 86 2
51 6 3
51 19 4
51 24 1
51 27 2
51 33 3
51 34 2
51 40 1
51 47 3
51 73 4
51 82 0
52 27 0
52 45 2
52 47 3
52 66 4
52 75 0
52 76 2
52 82 4
52 84 0
52 91 0
52 93 3
53 26 4
53 27 0
53 30 0
53 41 4
53 53 1
53 71 1
53 74 0
53 76 1
53 78 4
53 81 4
54 21 2
54 31 1
54 37 2
54 50 3
54 53 2
54 62 3
54 74 4
54 84 3
54 88 3
54 90 2
55 0 2
55 10 0
55 16 2
55 17 2
55 42 3
55 49 1
55 60 2
55 66 0
55 74 0
55 75 2
56 2 0
56 7 3
56 19 1
56 43 4
56 44 2
56 49 0
56 69 4
56 81 3
56 84 3
56 86 4
57 32 2
57 36 1
57 49 1
57 70 4
57 74 0
57 77 2
57 80 0
57 88 3
57 92 4
57 93 0
58 19 0
58 23 2
58 68 4
58 79 1
58 80 2
58 82 3
58 94 2
58 97 4
58 98 0
58 99 0
59 9 2
59 15 2
59 21 0
59 47 3
59 81 3
59 90 0
59 96 2
59 97 2
59 98 2
59 99 1
60 5 1
60 48 0
60 55 1
60 60 4
60 62 1
60 63 1
60 74 1
60 79 3
60 80 0
60 81 4
61 3 4
61 19 2
61 25 3
61 38 4
61 63 1
61 65 4
61 74 3
61 83 4
61 89 1
61 93 0
62 12 4
62 13 3
62 15 3
62 30 4
62 47 4
62 58 4
62 65 3
62 70 2
62 71 2
62 81 2
63 4 4
63 13 4
63 16 1
63 19 0
63 39 0
63 40 3
63 58 0
63 60 2
63 61 3
63 80 0
64 2 0
64 4 2
64 5 4
64 13 1
64 20 4
64 28 1
64 29 4
64 31 1
64 35 4
64 44 0
65 22 3
65 64 4
65 75 4
65 79 2
65 83 0
65 85 3
65 94 1
65 95 4
65 98 0
65 99 0
66 22 4
66 24 0
66 32 2
66 34 1
66 46 2
66 48 3
66 51 4
66 52 3
66 59 4
66 75 3
67 2 3
67 11 4
67 19 0
67 20 3
67 36 4
67 50 2
67 67 3
67 79 2
67 90 2
67 95 2
68 1 2
68 8 4
68 23 4
68 36 3
68 47 2
68 56 3
68 78 2
68 84 1
68 90 0
68 91 0
69 33 2
69 48 2
69 54 3
69 64 2
69 80 2
69 85 3
69 96 3
69 97 3
69 98 0
69 99 2
70 8 4
70 10 1
70 34 1
70 47 1
70 58 2
70 59 0
70 61 1
70 65 1
70 78 3
70 88 4
71 0 2
71 15 4
71 46 3
71 50 2
71 57 0
71 63 1
71 68 4
71 87 1
71 88 0
71 90 1
72 8 0
72 9 4
72 29 4
72 37 0
72 55 3
72 56 0
72 62 2
72 68 4
72 78 4
72 91 4
73 4 0
73 8 3
73 9 1
73 13 4
73 14 0
73 26 0
73 28 2
73 39 2
73 55 4
73 62 4
74 15 2
74 17 3
74 47 3
74 51 1
74 54 3
74 72 3
74 82 4
74 83 4
74 91 2
74 95 2
75 4 4
75 58 3
75 62 1
75 76 4
75 87 1
75 95 4
75 96 1
75 97 1
75 98 4
75 99 1
76 7 4
76 21 4
76 25 4
76 40 3
76 65 4
76 70 1
76 72 1
76 82 4
76 84 4
76 88 2
77 4 1
77 17 3
77 26 1
77 29 1
77 46 1
77 51 2
77 57 0
77 61 3
77 76 4
77 78 1
78 3 1
78 10 1
78 27 0
78 33 3
78 51 3
78 56 2
78 67 4
78 83 1
78 85 0
78 87 4
79 0 1
79 16 1
79 21 1
79 35 4
79 68 2
79 88 0
79 92 2
79 94 3
79 96 3
79 99 0
80 8 0
80 10 0
80 12 0
80 13 1
80 14 4
80 16 3
80 18 3
80 23 1
80 24 0
80 28 1
81 1 0
81 7 1
81 18 2
81 22 3
81 31 3
81 37 0
81 61 3
81 67 4
81 76 4
81 79 3
82 25 2
82 26 4
82 32 2
82 42 2
82 50 0
82 53 4
82 64 3
82 65 0
82 72 4
82 94 1
83 0 3
83 3 1
83 6 1
83 39 2
83 57 0
83 80 2
83 86 1
83 89 4
83 91 1
83 93 0
84 1 4
84 3 0
84 5 2
84 16 0
84 36 3
84 57 3
84 61 2
84 80 2
84 84 1
84 85 3
85 3 2
85 27 2
85 50 2
85 51 0
85 60 0
85 64 2
85 82 1
85 85 3
85 89 4
85 92 2
86 15 0
86 27 2
86 38 3
86 44 3
86 46 4
86 56 2
86 57 1
86 74 0
86 90 1
86 92 0
87 0 3
87 6 0
87 9 4
87 15 0
87 20 0
87 27 3
87 61 0
87 63 1
87 66 0
87 69 4
88 25 2
88 28 0
88 49 2
88 90 1
88 91 0
88 95 3
88 96 0
88 97 2
88 98 1
88 99 4
89 24 0
89 34 0
89 75 2
89 82 1
89 94 3
89 95 4
89 96 1
89 97 3
89 98 4
89 99 0
90 4 4
90 13 4
90 24 2
90 41 0
90 55 3
90 56 3
90 75 4
90 79 2
90 83 1
90 92 0
91 11 1
91 33 4
91 39 3
91 86 3
91 94 3
91 95 0
91 96 0
91 97 0
91 98 3
91 99 2
92 10 4
92 17 4
92 19 1
92 35 4
92 38 3
92 39 1
92 53 4
92 59 1
92 60 3
92 61 3
93 8 0
93 15 1
93 24 0
93 67 2
93 69 1
93 71 0
93 79 4
93 86 0
93 87 3
93 93 0
94 0 4
94 2 0
94 13 2
94 24 2
94 28 1
94 30 4
94 34 3
94 54 2
94 65 0
94 81 0
95 7 2
95 8 2
95 14 1
95 48 0
95 54 1
95 66 0
95 68 2
95 71 2
95 72 3
95 80 0
96 1 4
96 12 3
96 16 4
96 46 2
96 53 3
96 65 2
96 66 0
96 74 3
96 76 3
96 77 1
97 24 1
97 44 1
97 62 2
97 68 2
97 77 2
97 78 0
97 85 0
97 88 4
97 89 3
97 91 4
98 1 3
98 11 3
98 22 1
98 51 0
98 56 1
98 65 1
98 67 2
98 72 4
98 86 0
98 87 3
99 14 2
99 19 4
99 25 0
99 33 2
99 64 3
99 69 1
99 73 3
99 87 2
99 89 4
99 91 3
